algoritem_dodeljen_prostor/29746d5579b34df3a131dca0959b6120-pulp.mps
*SENSE:Maximize
NAME          MODEL
ROWS
 N  OBJ
 L  C0000000
 L  C0000001
 L  C0000002
 L  C0000003
 L  C0000004
 L  C0000005
 L  C0000006
COLUMNS
    X0000000  C0000000   1.000000000000e+00
    X0000000  C0000006   3.090868140800e+01
    X0000000  OBJ        1.255064536000e+03
    X0000001  C0000001   1.000000000000e+00
    X0000001  C0000002   1.000000000000e+00
    X0000001  C0000006   8.593378956800e-01
    X0000001  OBJ        3.489390256000e+01
    X0000002  C0000003   1.000000000000e+00
    X0000002  C0000004   1.000000000000e+00
    X0000002  C0000006   6.093620132060e-02
    X0000002  OBJ        7.070339030400e+02
    X0000003  C0000005   1.000000000000e+00
    X0000003  C0000006   1.674088260263e-01
    X0000003  OBJ        1.942420320000e+03
    MARK      'MARKER'                 'INTORG'
    X0000004  C0000000  -1.000000000000e+00
    X0000004  C0000001  -1.000000000000e+00
    X0000004  C0000004   1.000000000000e+00
    X0000004  OBJ       -5.940000000000e+00
    MARK      'MARKER'                 'INTEND'
    MARK      'MARKER'                 'INTORG'
    X0000005  C0000002   1.000000000000e+00
    X0000005  C0000003  -1.000000000000e+00
    X0000005  C0000005  -1.000000000000e+00
    X0000005  OBJ       -1.841898147890e+03
    MARK      'MARKER'                 'INTEND'
RHS
    RHS       C0000000   0.000000000000e+00
    RHS       C0000001   0.000000000000e+00
    RHS       C0000002   1.000000000000e+00
    RHS       C0000003   0.000000000000e+00
    RHS       C0000004   1.000000000000e+00
    RHS       C0000005   0.000000000000e+00
    RHS       C0000006   6.820000000000e+01
BOUNDS
 BV BND       X0000004
 BV BND       X0000005
ENDATA
