algoritem_dodeljen_prostor/29746d5579b34df3a131dca0959b6120-pulp.sol
Optimal - objective value 1349.64670811
      0 C0000000               0               1255.0645
      1 C0000001              -1                      -0
      2 C0000002               1               34.893903
      3 C0000003              -1                      -0
      4 C0000004               1                707.0339
      5 C0000005   2.220446e-016               1942.4203
      6 C0000006        31.07609                      -0
      0 X0000000               1                      -0
      1 X0000001               0                      -0
      2 X0000002               0                      -0
      3 X0000003               1                      -0
      4 X0000004               1               542.09063
      5 X0000005               1                65.62827
